g3 0 1 0	# problem 3pk
 30 0 1 0 0	# vars, constraints, objectives, ranges, eqns
 0 1	# nonlinear constraints, objectives
 0 0	# network constraints: nonlinear, linear
 0 30 0	# nonlinear vars in constraints, objectives, both
 0 0 0 1	# linear network variables; functions; arith, flags
 0 0 0 0 0	# discrete variables: binary, integer, nonlinear (b,c,o)
 0 30	# nonzeros in Jacobian, gradients
 0 0	# max name lengths: constraints, variables
 0 0 0 0 0	# common exprs: b,c,o,c1,o1
O0 0	#obj
o54	#sumlist
42
o2	#*
o0	# + 
n-1
o2	#*
n0.01
v15	#t0_3
o0	# + 
n-1
o2	#*
n0.01
v15	#t0_3
o2	#*
o0	# + 
n-1
o2	#*
n0.007143
v16	#t1_3
o0	# + 
n-1
o2	#*
n0.007143
v16	#t1_3
o2	#*
o0	# + 
n-1
o2	#*
n0.008333
v17	#t2_3
o0	# + 
n-1
o2	#*
n0.008333
v17	#t2_3
o2	#*
o0	# + 
n-1
o2	#*
n0.05
v18	#t4_3
o0	# + 
n-1
o2	#*
n0.05
v18	#t4_3
o2	#*
o0	# + 
n-1
o2	#*
n0.05
v19	#t5_3
o0	# + 
n-1
o2	#*
n0.05
v19	#t5_3
o2	#*
o0	# + 
n-1
o2	#*
n0.005
v20	#t0_4
o0	# + 
n-1
o2	#*
n0.005
v20	#t0_4
o2	#*
o0	# + 
n-1
o2	#*
n0.005556
v21	#t1_4
o0	# + 
n-1
o2	#*
n0.005556
v21	#t1_4
o2	#*
o0	# + 
n-1
o2	#*
n0.05
v22	#t2_4
o0	# + 
n-1
o2	#*
n0.05
v22	#t2_4
o2	#*
o0	# + 
n-1
o2	#*
n0.001667
v23	#t3_4
o0	# + 
n-1
o2	#*
n0.001667
v23	#t3_4
o2	#*
o0	# + 
n-1
o2	#*
n0.025
v24	#t5_4
o0	# + 
n-1
o2	#*
n0.025
v24	#t5_4
o2	#*
o0	# + 
n-1
o2	#*
n0.02
v25	#t0_5
o0	# + 
n-1
o2	#*
n0.02
v25	#t0_5
o2	#*
o0	# + 
n-1
o2	#*
n0.033333
v26	#t1_5
o0	# + 
n-1
o2	#*
n0.033333
v26	#t1_5
o2	#*
o0	# + 
n-1
o2	#*
n0.014286
v27	#t2_5
o0	# + 
n-1
o2	#*
n0.014286
v27	#t2_5
o2	#*
o0	# + 
n-1
o2	#*
n0.006667
v28	#t3_5
o0	# + 
n-1
o2	#*
n0.006667
v28	#t3_5
o2	#*
o0	# + 
n-1
o2	#*
n0.05
v29	#t4_5
o0	# + 
n-1
o2	#*
n0.05
v29	#t4_5
o2	#*
o0	# + 
n-1
o54	#sumlist
5
o2	#*
n0.4
v0	#a1_0
o2	#*
n0.4
v1	#a2_0
o2	#*
n0.4
v2	#a3_0
o2	#*
n0.4
v3	#a4_0
o2	#*
n0.4
v4	#a5_0
o0	# + 
n-1
o54	#sumlist
5
o2	#*
n0.4
v0	#a1_0
o2	#*
n0.4
v1	#a2_0
o2	#*
n0.4
v2	#a3_0
o2	#*
n0.4
v3	#a4_0
o2	#*
n0.4
v4	#a5_0
o2	#*
o0	# + 
n-1
o54	#sumlist
5
o2	#*
n0.4
v5	#a0_1
o2	#*
n0.4
v6	#a2_1
o2	#*
n0.4
v7	#a3_1
o2	#*
n0.4
v8	#a4_1
o2	#*
n0.4
v9	#a5_1
o0	# + 
n-1
o54	#sumlist
5
o2	#*
n0.4
v5	#a0_1
o2	#*
n0.4
v6	#a2_1
o2	#*
n0.4
v7	#a3_1
o2	#*
n0.4
v8	#a4_1
o2	#*
n0.4
v9	#a5_1
o2	#*
o0	# + 
n-1
o54	#sumlist
5
o2	#*
n0.4
v10	#a0_2
o2	#*
n0.4
v11	#a1_2
o2	#*
n0.4
v12	#a3_2
o2	#*
n0.4
v13	#a4_2
o2	#*
n0.4
v14	#a5_2
o0	# + 
n-1
o54	#sumlist
5
o2	#*
n0.4
v10	#a0_2
o2	#*
n0.4
v11	#a1_2
o2	#*
n0.4
v12	#a3_2
o2	#*
n0.4
v13	#a4_2
o2	#*
n0.4
v14	#a5_2
o2	#*
n10000
o2	#*
o0	# + 
n-1
o54	#sumlist
9
o2	#*
n0.26373626373626374
v5	#a0_1
o2	#*
n0.43956043956043955
v6	#a2_1
o2	#*
n0.46153846153846156
v7	#a3_1
o2	#*
n0.1978021978021978
v8	#a4_1
o2	#*
n0.3516483516483517
v9	#a5_1
o2	#*
n0.02197802197802198
v10	#a0_2
o2	#*
n0.04395604395604396
v12	#a3_2
o2	#*
n0.001098901098901099
v25	#t0_5
o2	#*
n0.001098901098901099
v28	#t3_5
o0	# + 
n-1
o54	#sumlist
9
o2	#*
n0.26373626373626374
v5	#a0_1
o2	#*
n0.43956043956043955
v6	#a2_1
o2	#*
n0.46153846153846156
v7	#a3_1
o2	#*
n0.1978021978021978
v8	#a4_1
o2	#*
n0.3516483516483517
v9	#a5_1
o2	#*
n0.02197802197802198
v10	#a0_2
o2	#*
n0.04395604395604396
v12	#a3_2
o2	#*
n0.001098901098901099
v25	#t0_5
o2	#*
n0.001098901098901099
v28	#t3_5
o2	#*
n10000
o2	#*
o0	# + 
n-1
o54	#sumlist
6
o2	#*
n0.11428571428571428
v10	#a0_2
o2	#*
n0.34285714285714286
v11	#a1_2
o2	#*
n0.22857142857142856
v12	#a3_2
o2	#*
n0.005714285714285714
v25	#t0_5
o2	#*
n0.005714285714285714
v26	#t1_5
o2	#*
n0.005714285714285714
v28	#t3_5
o0	# + 
n-1
o54	#sumlist
6
o2	#*
n0.11428571428571428
v10	#a0_2
o2	#*
n0.34285714285714286
v11	#a1_2
o2	#*
n0.22857142857142856
v12	#a3_2
o2	#*
n0.005714285714285714
v25	#t0_5
o2	#*
n0.005714285714285714
v26	#t1_5
o2	#*
n0.005714285714285714
v28	#t3_5
o2	#*
n10000
o2	#*
o0	# + 
n-1
o54	#sumlist
12
o2	#*
n0.10443864229765012
v0	#a1_0
o2	#*
n0.2506527415143603
v1	#a2_0
o2	#*
n0.06266318537859007
v2	#a3_0
o2	#*
n0.18798955613577023
v3	#a4_0
o2	#*
n0.2924281984334204
v4	#a5_0
o2	#*
n0.20887728459530025
v6	#a2_1
o2	#*
n0.2193211488250653
v7	#a3_1
o2	#*
n0.09399477806788512
v8	#a4_1
o2	#*
n0.1671018276762402
v9	#a5_1
o2	#*
n0.020887728459530026
v12	#a3_2
o2	#*
n0.0005221932114882506
v23	#t3_4
o2	#*
n0.0005221932114882506
v28	#t3_5
o0	# + 
n-1
o54	#sumlist
12
o2	#*
n0.10443864229765012
v0	#a1_0
o2	#*
n0.2506527415143603
v1	#a2_0
o2	#*
n0.06266318537859007
v2	#a3_0
o2	#*
n0.18798955613577023
v3	#a4_0
o2	#*
n0.2924281984334204
v4	#a5_0
o2	#*
n0.20887728459530025
v6	#a2_1
o2	#*
n0.2193211488250653
v7	#a3_1
o2	#*
n0.09399477806788512
v8	#a4_1
o2	#*
n0.1671018276762402
v9	#a5_1
o2	#*
n0.020887728459530026
v12	#a3_2
o2	#*
n0.0005221932114882506
v23	#t3_4
o2	#*
n0.0005221932114882506
v28	#t3_5
o2	#*
n10000
o2	#*
o0	# + 
n-1
o54	#sumlist
3
o2	#*
n0.0022222222222222222
v15	#t0_3
o2	#*
n0.0022222222222222222
v20	#t0_4
o2	#*
n0.0022222222222222222
v23	#t3_4
o0	# + 
n-1
o54	#sumlist
3
o2	#*
n0.0022222222222222222
v15	#t0_3
o2	#*
n0.0022222222222222222
v20	#t0_4
o2	#*
n0.0022222222222222222
v23	#t3_4
o2	#*
n10000
o2	#*
o0	# + 
n-1
o54	#sumlist
3
o2	#*
n0.7692307692307693
v0	#a1_0
o2	#*
n0.0038461538461538464
v16	#t1_3
o2	#*
n0.0038461538461538464
v21	#t1_4
o0	# + 
n-1
o54	#sumlist
3
o2	#*
n0.7692307692307693
v0	#a1_0
o2	#*
n0.0038461538461538464
v16	#t1_3
o2	#*
n0.0038461538461538464
v21	#t1_4
o2	#*
n10000
o2	#*
o0	# + 
n-1
o54	#sumlist
3
o2	#*
n1.5
v13	#a4_2
o2	#*
n0.25
v14	#a5_2
o2	#*
n0.0125
v29	#t4_5
o0	# + 
n-1
o54	#sumlist
3
o2	#*
n1.5
v13	#a4_2
o2	#*
n0.25
v14	#a5_2
o2	#*
n0.0125
v29	#t4_5
o2	#*
n10000
o2	#*
o0	# + 
n-1
o54	#sumlist
9
o2	#*
n0.7164179104477612
v1	#a2_0
o2	#*
n0.5970149253731343
v6	#a2_1
o2	#*
n0.0014925373134328358
v17	#t2_3
o2	#*
n0.0014925373134328358
v22	#t2_4
o2	#*
n0.0014925373134328358
v25	#t0_5
o2	#*
n0.0014925373134328358
v26	#t1_5
o2	#*
n0.0014925373134328358
v27	#t2_5
o2	#*
n0.0014925373134328358
v28	#t3_5
o2	#*
n0.0014925373134328358
v29	#t4_5
o0	# + 
n-1
o54	#sumlist
9
o2	#*
n0.7164179104477612
v1	#a2_0
o2	#*
n0.5970149253731343
v6	#a2_1
o2	#*
n0.0014925373134328358
v17	#t2_3
o2	#*
n0.0014925373134328358
v22	#t2_4
o2	#*
n0.0014925373134328358
v25	#t0_5
o2	#*
n0.0014925373134328358
v26	#t1_5
o2	#*
n0.0014925373134328358
v27	#t2_5
o2	#*
n0.0014925373134328358
v28	#t3_5
o2	#*
n0.0014925373134328358
v29	#t4_5
o2	#*
n10000
o2	#*
o0	# + 
n-1
o54	#sumlist
12
o2	#*
n0.13793103448275862
v0	#a1_0
o2	#*
n0.3310344827586207
v1	#a2_0
o2	#*
n0.2482758620689655
v3	#a4_0
o2	#*
n0.38620689655172413
v4	#a5_0
o2	#*
n0.27586206896551724
v6	#a2_1
o2	#*
n0.12413793103448276
v8	#a4_1
o2	#*
n0.2206896551724138
v9	#a5_1
o2	#*
n0.000689655172413793
v15	#t0_3
o2	#*
n0.000689655172413793
v16	#t1_3
o2	#*
n0.000689655172413793
v17	#t2_3
o2	#*
n0.000689655172413793
v18	#t4_3
o2	#*
n0.000689655172413793
v19	#t5_3
o0	# + 
n-1
o54	#sumlist
12
o2	#*
n0.13793103448275862
v0	#a1_0
o2	#*
n0.3310344827586207
v1	#a2_0
o2	#*
n0.2482758620689655
v3	#a4_0
o2	#*
n0.38620689655172413
v4	#a5_0
o2	#*
n0.27586206896551724
v6	#a2_1
o2	#*
n0.12413793103448276
v8	#a4_1
o2	#*
n0.2206896551724138
v9	#a5_1
o2	#*
n0.000689655172413793
v15	#t0_3
o2	#*
n0.000689655172413793
v16	#t1_3
o2	#*
n0.000689655172413793
v17	#t2_3
o2	#*
n0.000689655172413793
v18	#t4_3
o2	#*
n0.000689655172413793
v19	#t5_3
o2	#*
n10000
o2	#*
o0	# + 
n-1
o54	#sumlist
9
o2	#*
n0.48484848484848486
v1	#a2_0
o2	#*
n0.5656565656565656
v4	#a5_0
o2	#*
n0.40404040404040403
v6	#a2_1
o2	#*
n0.32323232323232326
v9	#a5_1
o2	#*
n0.020202020202020204
v14	#a5_2
o2	#*
n0.00101010101010101
v17	#t2_3
o2	#*
n0.00101010101010101
v19	#t5_3
o2	#*
n0.00101010101010101
v22	#t2_4
o2	#*
n0.00101010101010101
v24	#t5_4
o0	# + 
n-1
o54	#sumlist
9
o2	#*
n0.48484848484848486
v1	#a2_0
o2	#*
n0.5656565656565656
v4	#a5_0
o2	#*
n0.40404040404040403
v6	#a2_1
o2	#*
n0.32323232323232326
v9	#a5_1
o2	#*
n0.020202020202020204
v14	#a5_2
o2	#*
n0.00101010101010101
v17	#t2_3
o2	#*
n0.00101010101010101
v19	#t5_3
o2	#*
n0.00101010101010101
v22	#t2_4
o2	#*
n0.00101010101010101
v24	#t5_4
o2	#*
n2
o2	#*
o54	#sumlist
5
o2	#*
n-0.8
v0	#a1_0
o2	#*
n0.2
v1	#a2_0
o2	#*
n0.2
v2	#a3_0
o2	#*
n0.2
v3	#a4_0
o2	#*
n0.2
v4	#a5_0
o54	#sumlist
5
o2	#*
n-0.8
v0	#a1_0
o2	#*
n0.2
v1	#a2_0
o2	#*
n0.2
v2	#a3_0
o2	#*
n0.2
v3	#a4_0
o2	#*
n0.2
v4	#a5_0
o2	#*
n2
o2	#*
o54	#sumlist
5
o2	#*
n0.2
v0	#a1_0
o2	#*
n-0.8
v1	#a2_0
o2	#*
n0.2
v2	#a3_0
o2	#*
n0.2
v3	#a4_0
o2	#*
n0.2
v4	#a5_0
o54	#sumlist
5
o2	#*
n0.2
v0	#a1_0
o2	#*
n-0.8
v1	#a2_0
o2	#*
n0.2
v2	#a3_0
o2	#*
n0.2
v3	#a4_0
o2	#*
n0.2
v4	#a5_0
o2	#*
n2
o2	#*
o54	#sumlist
5
o2	#*
n0.2
v0	#a1_0
o2	#*
n0.2
v1	#a2_0
o2	#*
n-0.8
v2	#a3_0
o2	#*
n0.2
v3	#a4_0
o2	#*
n0.2
v4	#a5_0
o54	#sumlist
5
o2	#*
n0.2
v0	#a1_0
o2	#*
n0.2
v1	#a2_0
o2	#*
n-0.8
v2	#a3_0
o2	#*
n0.2
v3	#a4_0
o2	#*
n0.2
v4	#a5_0
o2	#*
n2
o2	#*
o54	#sumlist
5
o2	#*
n0.2
v0	#a1_0
o2	#*
n0.2
v1	#a2_0
o2	#*
n0.2
v2	#a3_0
o2	#*
n-0.8
v3	#a4_0
o2	#*
n0.2
v4	#a5_0
o54	#sumlist
5
o2	#*
n0.2
v0	#a1_0
o2	#*
n0.2
v1	#a2_0
o2	#*
n0.2
v2	#a3_0
o2	#*
n-0.8
v3	#a4_0
o2	#*
n0.2
v4	#a5_0
o2	#*
n2
o2	#*
o54	#sumlist
5
o2	#*
n0.2
v0	#a1_0
o2	#*
n0.2
v1	#a2_0
o2	#*
n0.2
v2	#a3_0
o2	#*
n0.2
v3	#a4_0
o2	#*
n-0.8
v4	#a5_0
o54	#sumlist
5
o2	#*
n0.2
v0	#a1_0
o2	#*
n0.2
v1	#a2_0
o2	#*
n0.2
v2	#a3_0
o2	#*
n0.2
v3	#a4_0
o2	#*
n-0.8
v4	#a5_0
o2	#*
n2
o2	#*
o54	#sumlist
5
o2	#*
n-0.8
v5	#a0_1
o2	#*
n0.2
v6	#a2_1
o2	#*
n0.2
v7	#a3_1
o2	#*
n0.2
v8	#a4_1
o2	#*
n0.2
v9	#a5_1
o54	#sumlist
5
o2	#*
n-0.8
v5	#a0_1
o2	#*
n0.2
v6	#a2_1
o2	#*
n0.2
v7	#a3_1
o2	#*
n0.2
v8	#a4_1
o2	#*
n0.2
v9	#a5_1
o2	#*
n2
o2	#*
o54	#sumlist
5
o2	#*
n0.2
v5	#a0_1
o2	#*
n-0.8
v6	#a2_1
o2	#*
n0.2
v7	#a3_1
o2	#*
n0.2
v8	#a4_1
o2	#*
n0.2
v9	#a5_1
o54	#sumlist
5
o2	#*
n0.2
v5	#a0_1
o2	#*
n-0.8
v6	#a2_1
o2	#*
n0.2
v7	#a3_1
o2	#*
n0.2
v8	#a4_1
o2	#*
n0.2
v9	#a5_1
o2	#*
n2
o2	#*
o54	#sumlist
5
o2	#*
n0.2
v5	#a0_1
o2	#*
n0.2
v6	#a2_1
o2	#*
n-0.8
v7	#a3_1
o2	#*
n0.2
v8	#a4_1
o2	#*
n0.2
v9	#a5_1
o54	#sumlist
5
o2	#*
n0.2
v5	#a0_1
o2	#*
n0.2
v6	#a2_1
o2	#*
n-0.8
v7	#a3_1
o2	#*
n0.2
v8	#a4_1
o2	#*
n0.2
v9	#a5_1
o2	#*
n2
o2	#*
o54	#sumlist
5
o2	#*
n0.2
v5	#a0_1
o2	#*
n0.2
v6	#a2_1
o2	#*
n0.2
v7	#a3_1
o2	#*
n-0.8
v8	#a4_1
o2	#*
n0.2
v9	#a5_1
o54	#sumlist
5
o2	#*
n0.2
v5	#a0_1
o2	#*
n0.2
v6	#a2_1
o2	#*
n0.2
v7	#a3_1
o2	#*
n-0.8
v8	#a4_1
o2	#*
n0.2
v9	#a5_1
o2	#*
n2
o2	#*
o54	#sumlist
5
o2	#*
n0.2
v5	#a0_1
o2	#*
n0.2
v6	#a2_1
o2	#*
n0.2
v7	#a3_1
o2	#*
n0.2
v8	#a4_1
o2	#*
n-0.8
v9	#a5_1
o54	#sumlist
5
o2	#*
n0.2
v5	#a0_1
o2	#*
n0.2
v6	#a2_1
o2	#*
n0.2
v7	#a3_1
o2	#*
n0.2
v8	#a4_1
o2	#*
n-0.8
v9	#a5_1
o2	#*
n2
o2	#*
o54	#sumlist
5
o2	#*
n-0.8
v10	#a0_2
o2	#*
n0.2
v11	#a1_2
o2	#*
n0.2
v12	#a3_2
o2	#*
n0.2
v13	#a4_2
o2	#*
n0.2
v14	#a5_2
o54	#sumlist
5
o2	#*
n-0.8
v10	#a0_2
o2	#*
n0.2
v11	#a1_2
o2	#*
n0.2
v12	#a3_2
o2	#*
n0.2
v13	#a4_2
o2	#*
n0.2
v14	#a5_2
o2	#*
n2
o2	#*
o54	#sumlist
5
o2	#*
n0.2
v10	#a0_2
o2	#*
n-0.8
v11	#a1_2
o2	#*
n0.2
v12	#a3_2
o2	#*
n0.2
v13	#a4_2
o2	#*
n0.2
v14	#a5_2
o54	#sumlist
5
o2	#*
n0.2
v10	#a0_2
o2	#*
n-0.8
v11	#a1_2
o2	#*
n0.2
v12	#a3_2
o2	#*
n0.2
v13	#a4_2
o2	#*
n0.2
v14	#a5_2
o2	#*
n2
o2	#*
o54	#sumlist
5
o2	#*
n0.2
v10	#a0_2
o2	#*
n0.2
v11	#a1_2
o2	#*
n-0.8
v12	#a3_2
o2	#*
n0.2
v13	#a4_2
o2	#*
n0.2
v14	#a5_2
o54	#sumlist
5
o2	#*
n0.2
v10	#a0_2
o2	#*
n0.2
v11	#a1_2
o2	#*
n-0.8
v12	#a3_2
o2	#*
n0.2
v13	#a4_2
o2	#*
n0.2
v14	#a5_2
o2	#*
n2
o2	#*
o54	#sumlist
5
o2	#*
n0.2
v10	#a0_2
o2	#*
n0.2
v11	#a1_2
o2	#*
n0.2
v12	#a3_2
o2	#*
n-0.8
v13	#a4_2
o2	#*
n0.2
v14	#a5_2
o54	#sumlist
5
o2	#*
n0.2
v10	#a0_2
o2	#*
n0.2
v11	#a1_2
o2	#*
n0.2
v12	#a3_2
o2	#*
n-0.8
v13	#a4_2
o2	#*
n0.2
v14	#a5_2
o2	#*
n2
o2	#*
o54	#sumlist
5
o2	#*
n0.2
v10	#a0_2
o2	#*
n0.2
v11	#a1_2
o2	#*
n0.2
v12	#a3_2
o2	#*
n0.2
v13	#a4_2
o2	#*
n-0.8
v14	#a5_2
o54	#sumlist
5
o2	#*
n0.2
v10	#a0_2
o2	#*
n0.2
v11	#a1_2
o2	#*
n0.2
v12	#a3_2
o2	#*
n0.2
v13	#a4_2
o2	#*
n-0.8
v14	#a5_2
x30	# initial guess
0 0.5
1 0.5
2 0.5
3 0.5
4 0.5
5 0.5
6 0.5
7 0.5
8 0.5
9 0.5
10 0.5
11 0.5
12 0.5
13 0.5
14 0.5
15 100
16 140
17 120
18 20
19 20
20 200
21 180
22 20
23 600
24 40
25 50
26 30
27 70
28 150
29 20
b	#30 bounds (on variables)
0 0 100
0 0 100
0 0 100
0 0 100
0 0 100
0 0 100
0 0 100
0 0 100
0 0 100
0 0 100
0 0 100
0 0 100
0 0 100
0 0 100
0 0 100
0 0 100
0 0 100
0 0 100
0 0 100
0 0 100
0 0 100
0 0 100
0 0 100
0 0 100
0 0 100
0 0 100
0 0 100
0 0 100
0 0 100
0 0 100
k29	#intermediate Jacobian column lengths
0
0
0
0
0
0
0
0
0
0
0
0
0
0
0
0
0
0
0
0
0
0
0
0
0
0
0
0
0
G0 30
0 0
1 0
2 0
3 0
4 0
5 0
6 0
7 0
8 0
9 0
10 0
11 0
12 0
13 0
14 0
15 0
16 0
17 0
18 0
19 0
20 0
21 0
22 0
23 0
24 0
25 0
26 0
27 0
28 0
29 0
